TOUR_SECTION
1
120
158
91
104
29
112
2
110
128
172
30
17
9
155
170
24
89
195
138
72
15
165
45
194
124
98
162
33
16
41
201
106
103
109
84
118
65
179
57
74
85
38
86
192
154
70
189
136
139
113
23
56
83
81
52
67
147
95
92
28
10
59
50
82
36
149
150
177
116
7
182
44
129
144
145
12
43
80
111
151
63
117
143
108
187
18
47
14
93
132
54
27
146
64
76
62
79
6
119
159
35
60
156
105
197
125
126
173
66
168
200
131
142
174
51
171
184
137
188
34
160
5
49
69
135
31
102
152
164
21
11
75
20
87
193
115
148
25
199
53
97
178
13
183
140
163
175
134
4
19
190
180
37
39
32
78
121
100
3
61
157
196
181
90
133
22
40
101
130
169
127
26
186
96
42
58
73
176
166
185
55
48
114
71
107
46
94
68
153
99
122
88
77
141
8
123
161
167
191
198
-1
EOF